p cnf 1198 2347 
-1  2 0 
-3  2 0 
-1 -3  4 0 
 2 -4 0 
-5  6 0 
-7  6 0 
-5 -7  8 0 
 6 -8 0 
-2  9 0 
-6  9 0 
-2 -6  10 0 
 9 -10 0 
-4  11 0 
-8  11 0 
-4 -8  12 0 
 11 -12 0 
-11  13 0 
-10  13 0 
-11 -10  14 0 
 13 -14 0 
-15  16 0 
-17  16 0 
-15 -17  18 0 
 16 -18 0 
-19  20 0 
-21  20 0 
-19 -21  22 0 
 20 -22 0 
-16  23 0 
-20  23 0 
-16 -20  24 0 
 23 -24 0 
-18  25 0 
-22  25 0 
-18 -22  26 0 
 25 -26 0 
-25  27 0 
-24  27 0 
-25 -24  28 0 
 27 -28 0 
-9  29 0 
-23  29 0 
-9 -23  30 0 
 29 -30 0 
-14  31 0 
-28  31 0 
-14 -28  32 0 
 31 -32 0 
-31  33 0 
-30  33 0 
-31 -30  34 0 
 33 -34 0 
-13  35 0 
-27  35 0 
-13 -27  36 0 
 35 -36 0 
-12  37 0 
-26  37 0 
-12 -26  38 0 
 37 -38 0 
-37  39 0 
-36  39 0 
-37 -36  40 0 
 39 -40 0 
-35  41 0 
-33  41 0 
-35 -33  42 0 
 41 -42 0 
-39  43 0 
-34  43 0 
-39 -34  44 0 
 43 -44 0 
-40  45 0 
-32  45 0 
-40 -32  46 0 
 45 -46 0 
-47  48 0 
-49  48 0 
-47 -49  50 0 
 48 -50 0 
-51  52 0 
-53  52 0 
-51 -53  54 0 
 52 -54 0 
-48  55 0 
-52  55 0 
-48 -52  56 0 
 55 -56 0 
-50  57 0 
-54  57 0 
-50 -54  58 0 
 57 -58 0 
-57  59 0 
-56  59 0 
-57 -56  60 0 
 59 -60 0 
-61  62 0 
-63  62 0 
-61 -63  64 0 
 62 -64 0 
-65  66 0 
-67  66 0 
-65 -67  68 0 
 66 -68 0 
-62  69 0 
-66  69 0 
-62 -66  70 0 
 69 -70 0 
-64  71 0 
-68  71 0 
-64 -68  72 0 
 71 -72 0 
-71  73 0 
-70  73 0 
-71 -70  74 0 
 73 -74 0 
-55  75 0 
-69  75 0 
-55 -69  76 0 
 75 -76 0 
-60  77 0 
-74  77 0 
-60 -74  78 0 
 77 -78 0 
-77  79 0 
-76  79 0 
-77 -76  80 0 
 79 -80 0 
-59  81 0 
-73  81 0 
-59 -73  82 0 
 81 -82 0 
-58  83 0 
-72  83 0 
-58 -72  84 0 
 83 -84 0 
-83  85 0 
-82  85 0 
-83 -82  86 0 
 85 -86 0 
-81  87 0 
-79  87 0 
-81 -79  88 0 
 87 -88 0 
-85  89 0 
-80  89 0 
-85 -80  90 0 
 89 -90 0 
-86  91 0 
-78  91 0 
-86 -78  92 0 
 91 -92 0 
-29  93 0 
-75  93 0 
-29 -75  94 0 
 93 -94 0 
-44  95 0 
-90  95 0 
-44 -90  96 0 
 95 -96 0 
-95  97 0 
-94  97 0 
-95 -94  98 0 
 97 -98 0 
-42  99 0 
-88  99 0 
-42 -88  100 0 
 99 -100 0 
-46  101 0 
-92  101 0 
-46 -92  102 0 
 101 -102 0 
-101  103 0 
-100  103 0 
-101 -100  104 0 
 103 -104 0 
-99  105 0 
-97  105 0 
-99 -97  106 0 
 105 -106 0 
-103  107 0 
-98  107 0 
-103 -98  108 0 
 107 -108 0 
-104  109 0 
-96  109 0 
-104 -96  110 0 
 109 -110 0 
-41  111 0 
-87  111 0 
-41 -87  112 0 
 111 -112 0 
-45  113 0 
-91  113 0 
-45 -91  114 0 
 113 -114 0 
-113  115 0 
-112  115 0 
-113 -112  116 0 
 115 -116 0 
-43  117 0 
-89  117 0 
-43 -89  118 0 
 117 -118 0 
-38  119 0 
-84  119 0 
-38 -84  120 0 
 119 -120 0 
-119  121 0 
-118  121 0 
-119 -118  122 0 
 121 -122 0 
-117  123 0 
-115  123 0 
-117 -115  124 0 
 123 -124 0 
-121  125 0 
-116  125 0 
-121 -116  126 0 
 125 -126 0 
-122  127 0 
-114  127 0 
-122 -114  128 0 
 127 -128 0 
-111  129 0 
-105  129 0 
-111 -105  130 0 
 129 -130 0 
-123  131 0 
-106  131 0 
-123 -106  132 0 
 131 -132 0 
-124  133 0 
-107  133 0 
-124 -107  134 0 
 133 -134 0 
-125  135 0 
-108  135 0 
-125 -108  136 0 
 135 -136 0 
-126  137 0 
-109  137 0 
-126 -109  138 0 
 137 -138 0 
-127  139 0 
-110  139 0 
-127 -110  140 0 
 139 -140 0 
-128  141 0 
-102  141 0 
-128 -102  142 0 
 141 -142 0 
-143  144 0 
-145  144 0 
-143 -145  146 0 
 144 -146 0 
-147  148 0 
-149  148 0 
-147 -149  150 0 
 148 -150 0 
-144  151 0 
-148  151 0 
-144 -148  152 0 
 151 -152 0 
-146  153 0 
-150  153 0 
-146 -150  154 0 
 153 -154 0 
-153  155 0 
-152  155 0 
-153 -152  156 0 
 155 -156 0 
-157  158 0 
-159  158 0 
-157 -159  160 0 
 158 -160 0 
-161  162 0 
-163  162 0 
-161 -163  164 0 
 162 -164 0 
-158  165 0 
-162  165 0 
-158 -162  166 0 
 165 -166 0 
-160  167 0 
-164  167 0 
-160 -164  168 0 
 167 -168 0 
-167  169 0 
-166  169 0 
-167 -166  170 0 
 169 -170 0 
-151  171 0 
-165  171 0 
-151 -165  172 0 
 171 -172 0 
-156  173 0 
-170  173 0 
-156 -170  174 0 
 173 -174 0 
-173  175 0 
-172  175 0 
-173 -172  176 0 
 175 -176 0 
-155  177 0 
-169  177 0 
-155 -169  178 0 
 177 -178 0 
-154  179 0 
-168  179 0 
-154 -168  180 0 
 179 -180 0 
-179  181 0 
-178  181 0 
-179 -178  182 0 
 181 -182 0 
-177  183 0 
-175  183 0 
-177 -175  184 0 
 183 -184 0 
-181  185 0 
-176  185 0 
-181 -176  186 0 
 185 -186 0 
-182  187 0 
-174  187 0 
-182 -174  188 0 
 187 -188 0 
-189  190 0 
-191  190 0 
-189 -191  192 0 
 190 -192 0 
-193  194 0 
-195  194 0 
-193 -195  196 0 
 194 -196 0 
-190  197 0 
-194  197 0 
-190 -194  198 0 
 197 -198 0 
-192  199 0 
-196  199 0 
-192 -196  200 0 
 199 -200 0 
-199  201 0 
-198  201 0 
-199 -198  202 0 
 201 -202 0 
-203  204 0 
-205  204 0 
-203 -205  206 0 
 204 -206 0 
-207  208 0 
-209  208 0 
-207 -209  210 0 
 208 -210 0 
-204  211 0 
-208  211 0 
-204 -208  212 0 
 211 -212 0 
-206  213 0 
-210  213 0 
-206 -210  214 0 
 213 -214 0 
-213  215 0 
-212  215 0 
-213 -212  216 0 
 215 -216 0 
-197  217 0 
-211  217 0 
-197 -211  218 0 
 217 -218 0 
-202  219 0 
-216  219 0 
-202 -216  220 0 
 219 -220 0 
-219  221 0 
-218  221 0 
-219 -218  222 0 
 221 -222 0 
-201  223 0 
-215  223 0 
-201 -215  224 0 
 223 -224 0 
-200  225 0 
-214  225 0 
-200 -214  226 0 
 225 -226 0 
-225  227 0 
-224  227 0 
-225 -224  228 0 
 227 -228 0 
-223  229 0 
-221  229 0 
-223 -221  230 0 
 229 -230 0 
-227  231 0 
-222  231 0 
-227 -222  232 0 
 231 -232 0 
-228  233 0 
-220  233 0 
-228 -220  234 0 
 233 -234 0 
-171  235 0 
-217  235 0 
-171 -217  236 0 
 235 -236 0 
-186  237 0 
-232  237 0 
-186 -232  238 0 
 237 -238 0 
-237  239 0 
-236  239 0 
-237 -236  240 0 
 239 -240 0 
-184  241 0 
-230  241 0 
-184 -230  242 0 
 241 -242 0 
-188  243 0 
-234  243 0 
-188 -234  244 0 
 243 -244 0 
-243  245 0 
-242  245 0 
-243 -242  246 0 
 245 -246 0 
-241  247 0 
-239  247 0 
-241 -239  248 0 
 247 -248 0 
-245  249 0 
-240  249 0 
-245 -240  250 0 
 249 -250 0 
-246  251 0 
-238  251 0 
-246 -238  252 0 
 251 -252 0 
-183  253 0 
-229  253 0 
-183 -229  254 0 
 253 -254 0 
-187  255 0 
-233  255 0 
-187 -233  256 0 
 255 -256 0 
-255  257 0 
-254  257 0 
-255 -254  258 0 
 257 -258 0 
-185  259 0 
-231  259 0 
-185 -231  260 0 
 259 -260 0 
-180  261 0 
-226  261 0 
-180 -226  262 0 
 261 -262 0 
-261  263 0 
-260  263 0 
-261 -260  264 0 
 263 -264 0 
-259  265 0 
-257  265 0 
-259 -257  266 0 
 265 -266 0 
-263  267 0 
-258  267 0 
-263 -258  268 0 
 267 -268 0 
-264  269 0 
-256  269 0 
-264 -256  270 0 
 269 -270 0 
-253  271 0 
-247  271 0 
-253 -247  272 0 
 271 -272 0 
-265  273 0 
-248  273 0 
-265 -248  274 0 
 273 -274 0 
-266  275 0 
-249  275 0 
-266 -249  276 0 
 275 -276 0 
-267  277 0 
-250  277 0 
-267 -250  278 0 
 277 -278 0 
-268  279 0 
-251  279 0 
-268 -251  280 0 
 279 -280 0 
-269  281 0 
-252  281 0 
-269 -252  282 0 
 281 -282 0 
-270  283 0 
-244  283 0 
-270 -244  284 0 
 283 -284 0 
-93  285 0 
-235  285 0 
-93 -235  286 0 
 285 -286 0 
-136  287 0 
-278  287 0 
-136 -278  288 0 
 287 -288 0 
-287  289 0 
-286  289 0 
-287 -286  290 0 
 289 -290 0 
-132  291 0 
-274  291 0 
-132 -274  292 0 
 291 -292 0 
-140  293 0 
-282  293 0 
-140 -282  294 0 
 293 -294 0 
-293  295 0 
-292  295 0 
-293 -292  296 0 
 295 -296 0 
-291  297 0 
-289  297 0 
-291 -289  298 0 
 297 -298 0 
-295  299 0 
-290  299 0 
-295 -290  300 0 
 299 -300 0 
-296  301 0 
-288  301 0 
-296 -288  302 0 
 301 -302 0 
-130  303 0 
-272  303 0 
-130 -272  304 0 
 303 -304 0 
-138  305 0 
-280  305 0 
-138 -280  306 0 
 305 -306 0 
-305  307 0 
-304  307 0 
-305 -304  308 0 
 307 -308 0 
-134  309 0 
-276  309 0 
-134 -276  310 0 
 309 -310 0 
-142  311 0 
-284  311 0 
-142 -284 0 
-311  312 0 
-310  312 0 
-311 -310  313 0 
 312 -313 0 
-309  314 0 
-307  314 0 
-309 -307  315 0 
 314 -315 0 
-312  316 0 
-308  316 0 
-312 -308  317 0 
 316 -317 0 
-313  318 0 
-306  318 0 
-313 -306  319 0 
 318 -319 0 
-303  320 0 
-297  320 0 
-303 -297  321 0 
 320 -321 0 
-314  322 0 
-298  322 0 
-314 -298  323 0 
 322 -323 0 
-315  324 0 
-299  324 0 
-315 -299  325 0 
 324 -325 0 
-316  326 0 
-300  326 0 
-316 -300  327 0 
 326 -327 0 
-317  328 0 
-301  328 0 
-317 -301  329 0 
 328 -329 0 
-318  330 0 
-302  330 0 
-318 -302  331 0 
 330 -331 0 
-319  332 0 
-294  332 0 
-319 -294  333 0 
 332 -333 0 
-129  334 0 
-271  334 0 
-129 -271  335 0 
 334 -335 0 
-137  336 0 
-279  336 0 
-137 -279  337 0 
 336 -337 0 
-336  338 0 
-335  338 0 
-336 -335  339 0 
 338 -339 0 
-133  340 0 
-275  340 0 
-133 -275  341 0 
 340 -341 0 
-141  342 0 
-283  342 0 
-141 -283  343 0 
 342 -343 0 
-342  344 0 
-341  344 0 
-342 -341  345 0 
 344 -345 0 
-340  346 0 
-338  346 0 
-340 -338  347 0 
 346 -347 0 
-344  348 0 
-339  348 0 
-344 -339  349 0 
 348 -349 0 
-345  350 0 
-337  350 0 
-345 -337  351 0 
 350 -351 0 
-131  352 0 
-273  352 0 
-131 -273  353 0 
 352 -353 0 
-139  354 0 
-281  354 0 
-139 -281  355 0 
 354 -355 0 
-354  356 0 
-353  356 0 
-354 -353  357 0 
 356 -357 0 
-135  358 0 
-277  358 0 
-135 -277  359 0 
 358 -359 0 
-120  360 0 
-262  360 0 
-120 -262 0 
-360  361 0 
-359  361 0 
-360 -359  362 0 
 361 -362 0 
-358  363 0 
-356  363 0 
-358 -356  364 0 
 363 -364 0 
-361  365 0 
-357  365 0 
-361 -357  366 0 
 365 -366 0 
-362  367 0 
-355  367 0 
-362 -355  368 0 
 367 -368 0 
-352  369 0 
-346  369 0 
-352 -346  370 0 
 369 -370 0 
-363  371 0 
-347  371 0 
-363 -347  372 0 
 371 -372 0 
-364  373 0 
-348  373 0 
-364 -348  374 0 
 373 -374 0 
-365  375 0 
-349  375 0 
-365 -349  376 0 
 375 -376 0 
-366  377 0 
-350  377 0 
-366 -350  378 0 
 377 -378 0 
-367  379 0 
-351  379 0 
-367 -351  380 0 
 379 -380 0 
-368  381 0 
-343  381 0 
-368 -343 0 
-334  382 0 
-320  382 0 
-334 -320  383 0 
 382 -383 0 
-369  384 0 
-321  384 0 
-369 -321  385 0 
 384 -385 0 
-370  386 0 
-322  386 0 
-370 -322  387 0 
 386 -387 0 
-371  388 0 
-323  388 0 
-371 -323  389 0 
 388 -389 0 
-372  390 0 
-324  390 0 
-372 -324  391 0 
 390 -391 0 
-373  392 0 
-325  392 0 
-373 -325  393 0 
 392 -393 0 
-374  394 0 
-326  394 0 
-374 -326  395 0 
 394 -395 0 
-375  396 0 
-327  396 0 
-375 -327  397 0 
 396 -397 0 
-376  398 0 
-328  398 0 
-376 -328  399 0 
 398 -399 0 
-377  400 0 
-329  400 0 
-377 -329  401 0 
 400 -401 0 
-378  402 0 
-330  402 0 
-378 -330  403 0 
 402 -403 0 
-379  404 0 
-331  404 0 
-379 -331  405 0 
 404 -405 0 
-380  406 0 
-332  406 0 
-380 -332  407 0 
 406 -407 0 
-381  408 0 
-333  408 0 
-381 -333 0 
-409  410 0 
-411  410 0 
-409 -411  412 0 
 410 -412 0 
-413  414 0 
-415  414 0 
-413 -415  416 0 
 414 -416 0 
-410  417 0 
-414  417 0 
-410 -414  418 0 
 417 -418 0 
-412  419 0 
-416  419 0 
-412 -416  420 0 
 419 -420 0 
-419  421 0 
-418  421 0 
-419 -418  422 0 
 421 -422 0 
-423  424 0 
-425  424 0 
-423 -425  426 0 
 424 -426 0 
-427  428 0 
-429  428 0 
-427 -429  430 0 
 428 -430 0 
-424  431 0 
-428  431 0 
-424 -428  432 0 
 431 -432 0 
-426  433 0 
-430  433 0 
-426 -430  434 0 
 433 -434 0 
-433  435 0 
-432  435 0 
-433 -432  436 0 
 435 -436 0 
-417  437 0 
-431  437 0 
-417 -431  438 0 
 437 -438 0 
-422  439 0 
-436  439 0 
-422 -436  440 0 
 439 -440 0 
-439  441 0 
-438  441 0 
-439 -438  442 0 
 441 -442 0 
-421  443 0 
-435  443 0 
-421 -435  444 0 
 443 -444 0 
-420  445 0 
-434  445 0 
-420 -434  446 0 
 445 -446 0 
-445  447 0 
-444  447 0 
-445 -444  448 0 
 447 -448 0 
-443  449 0 
-441  449 0 
-443 -441  450 0 
 449 -450 0 
-447  451 0 
-442  451 0 
-447 -442  452 0 
 451 -452 0 
-448  453 0 
-440  453 0 
-448 -440  454 0 
 453 -454 0 
-455  456 0 
-457  456 0 
-455 -457  458 0 
 456 -458 0 
-459  460 0 
-461  460 0 
-459 -461  462 0 
 460 -462 0 
-456  463 0 
-460  463 0 
-456 -460  464 0 
 463 -464 0 
-458  465 0 
-462  465 0 
-458 -462  466 0 
 465 -466 0 
-465  467 0 
-464  467 0 
-465 -464  468 0 
 467 -468 0 
-469  470 0 
-471  470 0 
-469 -471  472 0 
 470 -472 0 
-473  474 0 
-475  474 0 
-473 -475  476 0 
 474 -476 0 
-470  477 0 
-474  477 0 
-470 -474  478 0 
 477 -478 0 
-472  479 0 
-476  479 0 
-472 -476  480 0 
 479 -480 0 
-479  481 0 
-478  481 0 
-479 -478  482 0 
 481 -482 0 
-463  483 0 
-477  483 0 
-463 -477  484 0 
 483 -484 0 
-468  485 0 
-482  485 0 
-468 -482  486 0 
 485 -486 0 
-485  487 0 
-484  487 0 
-485 -484  488 0 
 487 -488 0 
-467  489 0 
-481  489 0 
-467 -481  490 0 
 489 -490 0 
-466  491 0 
-480  491 0 
-466 -480  492 0 
 491 -492 0 
-491  493 0 
-490  493 0 
-491 -490  494 0 
 493 -494 0 
-489  495 0 
-487  495 0 
-489 -487  496 0 
 495 -496 0 
-493  497 0 
-488  497 0 
-493 -488  498 0 
 497 -498 0 
-494  499 0 
-486  499 0 
-494 -486  500 0 
 499 -500 0 
-437  501 0 
-483  501 0 
-437 -483  502 0 
 501 -502 0 
-452  503 0 
-498  503 0 
-452 -498  504 0 
 503 -504 0 
-503  505 0 
-502  505 0 
-503 -502  506 0 
 505 -506 0 
-450  507 0 
-496  507 0 
-450 -496  508 0 
 507 -508 0 
-454  509 0 
-500  509 0 
-454 -500  510 0 
 509 -510 0 
-509  511 0 
-508  511 0 
-509 -508  512 0 
 511 -512 0 
-507  513 0 
-505  513 0 
-507 -505  514 0 
 513 -514 0 
-511  515 0 
-506  515 0 
-511 -506  516 0 
 515 -516 0 
-512  517 0 
-504  517 0 
-512 -504  518 0 
 517 -518 0 
-449  519 0 
-495  519 0 
-449 -495  520 0 
 519 -520 0 
-453  521 0 
-499  521 0 
-453 -499  522 0 
 521 -522 0 
-521  523 0 
-520  523 0 
-521 -520  524 0 
 523 -524 0 
-451  525 0 
-497  525 0 
-451 -497  526 0 
 525 -526 0 
-446  527 0 
-492  527 0 
-446 -492  528 0 
 527 -528 0 
-527  529 0 
-526  529 0 
-527 -526  530 0 
 529 -530 0 
-525  531 0 
-523  531 0 
-525 -523  532 0 
 531 -532 0 
-529  533 0 
-524  533 0 
-529 -524  534 0 
 533 -534 0 
-530  535 0 
-522  535 0 
-530 -522  536 0 
 535 -536 0 
-519  537 0 
-513  537 0 
-519 -513  538 0 
 537 -538 0 
-531  539 0 
-514  539 0 
-531 -514  540 0 
 539 -540 0 
-532  541 0 
-515  541 0 
-532 -515  542 0 
 541 -542 0 
-533  543 0 
-516  543 0 
-533 -516  544 0 
 543 -544 0 
-534  545 0 
-517  545 0 
-534 -517  546 0 
 545 -546 0 
-535  547 0 
-518  547 0 
-535 -518  548 0 
 547 -548 0 
-536  549 0 
-510  549 0 
-536 -510  550 0 
 549 -550 0 
-540  551 0 
-544  551 0 
-540 -544  552 0 
 551 -552 0 
-542  553 0 
-546  553 0 
-542 -546  554 0 
 553 -554 0 
-538  555 0 
-551  555 0 
-538 -551  556 0 
 555 -556 0 
-553  557 0 
-552  557 0 
-553 -552  558 0 
 557 -558 0 
-554  559 0 
-548  559 0 
-554 -548  560 0 
 559 -560 0 
-541  561 0 
-545  561 0 
-541 -545  562 0 
 561 -562 0 
-543  563 0 
-547  563 0 
-543 -547  564 0 
 563 -564 0 
-539  565 0 
-561  565 0 
-539 -561  566 0 
 565 -566 0 
-563  567 0 
-562  567 0 
-563 -562  568 0 
 567 -568 0 
-564  569 0 
-549  569 0 
-564 -549  570 0 
 569 -570 0 
-537  571 0 
-555  571 0 
-537 -555  572 0 
 571 -572 0 
-565  573 0 
-556  573 0 
-565 -556  574 0 
 573 -574 0 
-566  575 0 
-557  575 0 
-566 -557  576 0 
 575 -576 0 
-567  577 0 
-558  577 0 
-567 -558  578 0 
 577 -578 0 
-568  579 0 
-559  579 0 
-568 -559  580 0 
 579 -580 0 
-569  581 0 
-560  581 0 
-569 -560  582 0 
 581 -582 0 
-570  583 0 
-550  583 0 
-570 -550  584 0 
 583 -584 0 
-285 -501  585 0 
 586 -585 0 
-397 -585  587 0 
 586 -587 0 
-389 -578  588 0 
 586 -588 0 
-405  589 0 
-588  589 0 
-405 -588 0 
-589  590 0 
-587  590 0 
-589 -587 0 
-385 -574  591 0 
 586 -591 0 
-401  592 0 
-591  592 0 
-401 -591 0 
-393  593 0 
-582  593 0 
-393 -582 0 
-593 -592  594 0 
 586 -594 0 
-594 -590  595 0 
 586 -595 0 
-383 -572  596 0 
 586 -596 0 
-399 -596  597 0 
 586 -597 0 
-391 -580  598 0 
 586 -598 0 
-407  599 0 
-598  599 0 
-407 -598 0 
-599  600 0 
-597  600 0 
-599 -597 0 
-387 -576  601 0 
 586 -601 0 
-403  602 0 
-601  602 0 
-403 -601 0 
-395  603 0 
-584  603 0 
-395 -584 0 
-603 -602  604 0 
 586 -604 0 
-604  605 0 
-600  605 0 
-604 -600 0 
-605 -595  606 0 
 586 -606 0 
-382 -571  607 0 
 586 -607 0 
-398 -607  608 0 
 586 -608 0 
-390 -579  609 0 
 586 -609 0 
-406  610 0 
-609  610 0 
-406 -609 0 
-610  611 0 
-608  611 0 
-610 -608 0 
-386 -575  612 0 
 586 -612 0 
-402  613 0 
-612  613 0 
-402 -612 0 
-394  614 0 
-583  614 0 
-394 -583 0 
-614 -613  615 0 
 586 -615 0 
-615 -611  616 0 
 586 -616 0 
-384 -573  617 0 
 586 -617 0 
-400 -617  618 0 
 586 -618 0 
-392 -581  619 0 
 586 -619 0 
-408  620 0 
-619  620 0 
-408 -619 0 
-620  621 0 
-618  621 0 
-620 -618 0 
-388 -577  622 0 
 586 -622 0 
-404  623 0 
-622  623 0 
-404 -622 0 
-396  624 0 
-528  624 0 
-396 -528 0 
-624 -623  625 0 
 586 -625 0 
-625  626 0 
-621  626 0 
-625 -621 0 
-626  627 0 
-616  627 0 
-626 -616 0 
-627 -606 0 
 1  3 -628 0 
 1 -629 0 
 3 -629 0 
 628 -629 0 
 5  7 -630 0 
 5 -631 0 
 7 -631 0 
 630 -631 0 
 628  630 -632 0 
 628 -633 0 
 630 -633 0 
 632 -633 0 
 629  631 -634 0 
 629 -635 0 
 631 -635 0 
 634 -635 0 
 634  633 -636 0 
 634 -637 0 
 633 -637 0 
 636 -637 0 
 15  17 -638 0 
 15 -639 0 
 17 -639 0 
 638 -639 0 
 19  21 -640 0 
 19 -641 0 
 21 -641 0 
 640 -641 0 
 638  640 -642 0 
 638 -643 0 
 640 -643 0 
 642 -643 0 
 639  641 -644 0 
 639 -645 0 
 641 -645 0 
 644 -645 0 
 644  643 -646 0 
 644 -647 0 
 643 -647 0 
 646 -647 0 
 632  642 -648 0 
 632 -649 0 
 642 -649 0 
 648 -649 0 
 637  647 -650 0 
 637 -651 0 
 647 -651 0 
 650 -651 0 
 650  649 -652 0 
 650 -653 0 
 649 -653 0 
 652 -653 0 
 636  646 -654 0 
 636 -655 0 
 646 -655 0 
 654 -655 0 
 635  645 -656 0 
 635 -657 0 
 645 -657 0 
 656 -657 0 
 656  655 -658 0 
 656 -659 0 
 655 -659 0 
 658 -659 0 
 654  652 -660 0 
 654 -661 0 
 652 -661 0 
 660 -661 0 
 658  653 -662 0 
 658 -663 0 
 653 -663 0 
 662 -663 0 
 659  651 -664 0 
 659 -665 0 
 651 -665 0 
 664 -665 0 
 47  49 -666 0 
 47 -667 0 
 49 -667 0 
 666 -667 0 
 51  53 -668 0 
 51 -669 0 
 53 -669 0 
 668 -669 0 
 666  668 -670 0 
 666 -671 0 
 668 -671 0 
 670 -671 0 
 667  669 -672 0 
 667 -673 0 
 669 -673 0 
 672 -673 0 
 672  671 -674 0 
 672 -675 0 
 671 -675 0 
 674 -675 0 
 61  63 -676 0 
 61 -677 0 
 63 -677 0 
 676 -677 0 
 65  67 -678 0 
 65 -679 0 
 67 -679 0 
 678 -679 0 
 676  678 -680 0 
 676 -681 0 
 678 -681 0 
 680 -681 0 
 677  679 -682 0 
 677 -683 0 
 679 -683 0 
 682 -683 0 
 682  681 -684 0 
 682 -685 0 
 681 -685 0 
 684 -685 0 
 670  680 -686 0 
 670 -687 0 
 680 -687 0 
 686 -687 0 
 675  685 -688 0 
 675 -689 0 
 685 -689 0 
 688 -689 0 
 688  687 -690 0 
 688 -691 0 
 687 -691 0 
 690 -691 0 
 674  684 -692 0 
 674 -693 0 
 684 -693 0 
 692 -693 0 
 673  683 -694 0 
 673 -695 0 
 683 -695 0 
 694 -695 0 
 694  693 -696 0 
 694 -697 0 
 693 -697 0 
 696 -697 0 
 692  690 -698 0 
 692 -699 0 
 690 -699 0 
 698 -699 0 
 696  691 -700 0 
 696 -701 0 
 691 -701 0 
 700 -701 0 
 697  689 -702 0 
 697 -703 0 
 689 -703 0 
 702 -703 0 
 648  686 -704 0 
 648 -705 0 
 686 -705 0 
 704 -705 0 
 663  701 -706 0 
 663 -707 0 
 701 -707 0 
 706 -707 0 
 706  705 -708 0 
 706 -709 0 
 705 -709 0 
 708 -709 0 
 661  699 -710 0 
 661 -711 0 
 699 -711 0 
 710 -711 0 
 665  703 -712 0 
 665 -713 0 
 703 -713 0 
 712 -713 0 
 712  711 -714 0 
 712 -715 0 
 711 -715 0 
 714 -715 0 
 710  708 -716 0 
 710 -717 0 
 708 -717 0 
 716 -717 0 
 714  709 -718 0 
 714 -719 0 
 709 -719 0 
 718 -719 0 
 715  707 -720 0 
 715 -721 0 
 707 -721 0 
 720 -721 0 
 660  698 -722 0 
 660 -723 0 
 698 -723 0 
 722 -723 0 
 664  702 -724 0 
 664 -725 0 
 702 -725 0 
 724 -725 0 
 724  723 -726 0 
 724 -727 0 
 723 -727 0 
 726 -727 0 
 662  700 -728 0 
 662 -729 0 
 700 -729 0 
 728 -729 0 
 657  695 -730 0 
 657 -731 0 
 695 -731 0 
 730 -731 0 
 730  729 -732 0 
 730 -733 0 
 729 -733 0 
 732 -733 0 
 728  726 -734 0 
 728 -735 0 
 726 -735 0 
 734 -735 0 
 732  727 -736 0 
 732 -737 0 
 727 -737 0 
 736 -737 0 
 733  725 -738 0 
 733 -739 0 
 725 -739 0 
 738 -739 0 
 722  716 -740 0 
 722 -741 0 
 716 -741 0 
 740 -741 0 
 734  717 -742 0 
 734 -743 0 
 717 -743 0 
 742 -743 0 
 735  718 -744 0 
 735 -745 0 
 718 -745 0 
 744 -745 0 
 736  719 -746 0 
 736 -747 0 
 719 -747 0 
 746 -747 0 
 737  720 -748 0 
 737 -749 0 
 720 -749 0 
 748 -749 0 
 738  721 -750 0 
 738 -751 0 
 721 -751 0 
 750 -751 0 
 739  713 -752 0 
 739 -753 0 
 713 -753 0 
 752 -753 0 
 143  145 -754 0 
 143 -755 0 
 145 -755 0 
 754 -755 0 
 147  149 -756 0 
 147 -757 0 
 149 -757 0 
 756 -757 0 
 754  756 -758 0 
 754 -759 0 
 756 -759 0 
 758 -759 0 
 755  757 -760 0 
 755 -761 0 
 757 -761 0 
 760 -761 0 
 760  759 -762 0 
 760 -763 0 
 759 -763 0 
 762 -763 0 
 157  159 -764 0 
 157 -765 0 
 159 -765 0 
 764 -765 0 
 161  163 -766 0 
 161 -767 0 
 163 -767 0 
 766 -767 0 
 764  766 -768 0 
 764 -769 0 
 766 -769 0 
 768 -769 0 
 765  767 -770 0 
 765 -771 0 
 767 -771 0 
 770 -771 0 
 770  769 -772 0 
 770 -773 0 
 769 -773 0 
 772 -773 0 
 758  768 -774 0 
 758 -775 0 
 768 -775 0 
 774 -775 0 
 763  773 -776 0 
 763 -777 0 
 773 -777 0 
 776 -777 0 
 776  775 -778 0 
 776 -779 0 
 775 -779 0 
 778 -779 0 
 762  772 -780 0 
 762 -781 0 
 772 -781 0 
 780 -781 0 
 761  771 -782 0 
 761 -783 0 
 771 -783 0 
 782 -783 0 
 782  781 -784 0 
 782 -785 0 
 781 -785 0 
 784 -785 0 
 780  778 -786 0 
 780 -787 0 
 778 -787 0 
 786 -787 0 
 784  779 -788 0 
 784 -789 0 
 779 -789 0 
 788 -789 0 
 785  777 -790 0 
 785 -791 0 
 777 -791 0 
 790 -791 0 
 189  191 -792 0 
 189 -793 0 
 191 -793 0 
 792 -793 0 
 193  195 -794 0 
 193 -795 0 
 195 -795 0 
 794 -795 0 
 792  794 -796 0 
 792 -797 0 
 794 -797 0 
 796 -797 0 
 793  795 -798 0 
 793 -799 0 
 795 -799 0 
 798 -799 0 
 798  797 -800 0 
 798 -801 0 
 797 -801 0 
 800 -801 0 
 203  205 -802 0 
 203 -803 0 
 205 -803 0 
 802 -803 0 
 207  209 -804 0 
 207 -805 0 
 209 -805 0 
 804 -805 0 
 802  804 -806 0 
 802 -807 0 
 804 -807 0 
 806 -807 0 
 803  805 -808 0 
 803 -809 0 
 805 -809 0 
 808 -809 0 
 808  807 -810 0 
 808 -811 0 
 807 -811 0 
 810 -811 0 
 796  806 -812 0 
 796 -813 0 
 806 -813 0 
 812 -813 0 
 801  811 -814 0 
 801 -815 0 
 811 -815 0 
 814 -815 0 
 814  813 -816 0 
 814 -817 0 
 813 -817 0 
 816 -817 0 
 800  810 -818 0 
 800 -819 0 
 810 -819 0 
 818 -819 0 
 799  809 -820 0 
 799 -821 0 
 809 -821 0 
 820 -821 0 
 820  819 -822 0 
 820 -823 0 
 819 -823 0 
 822 -823 0 
 818  816 -824 0 
 818 -825 0 
 816 -825 0 
 824 -825 0 
 822  817 -826 0 
 822 -827 0 
 817 -827 0 
 826 -827 0 
 823  815 -828 0 
 823 -829 0 
 815 -829 0 
 828 -829 0 
 774  812 -830 0 
 774 -831 0 
 812 -831 0 
 830 -831 0 
 789  827 -832 0 
 789 -833 0 
 827 -833 0 
 832 -833 0 
 832  831 -834 0 
 832 -835 0 
 831 -835 0 
 834 -835 0 
 787  825 -836 0 
 787 -837 0 
 825 -837 0 
 836 -837 0 
 791  829 -838 0 
 791 -839 0 
 829 -839 0 
 838 -839 0 
 838  837 -840 0 
 838 -841 0 
 837 -841 0 
 840 -841 0 
 836  834 -842 0 
 836 -843 0 
 834 -843 0 
 842 -843 0 
 840  835 -844 0 
 840 -845 0 
 835 -845 0 
 844 -845 0 
 841  833 -846 0 
 841 -847 0 
 833 -847 0 
 846 -847 0 
 786  824 -848 0 
 786 -849 0 
 824 -849 0 
 848 -849 0 
 790  828 -850 0 
 790 -851 0 
 828 -851 0 
 850 -851 0 
 850  849 -852 0 
 850 -853 0 
 849 -853 0 
 852 -853 0 
 788  826 -854 0 
 788 -855 0 
 826 -855 0 
 854 -855 0 
 783  821 -856 0 
 783 -857 0 
 821 -857 0 
 856 -857 0 
 856  855 -858 0 
 856 -859 0 
 855 -859 0 
 858 -859 0 
 854  852 -860 0 
 854 -861 0 
 852 -861 0 
 860 -861 0 
 858  853 -862 0 
 858 -863 0 
 853 -863 0 
 862 -863 0 
 859  851 -864 0 
 859 -865 0 
 851 -865 0 
 864 -865 0 
 848  842 -866 0 
 848 -867 0 
 842 -867 0 
 866 -867 0 
 860  843 -868 0 
 860 -869 0 
 843 -869 0 
 868 -869 0 
 861  844 -870 0 
 861 -871 0 
 844 -871 0 
 870 -871 0 
 862  845 -872 0 
 862 -873 0 
 845 -873 0 
 872 -873 0 
 863  846 -874 0 
 863 -875 0 
 846 -875 0 
 874 -875 0 
 864  847 -876 0 
 864 -877 0 
 847 -877 0 
 876 -877 0 
 865  839 -878 0 
 865 -879 0 
 839 -879 0 
 878 -879 0 
 704  830 -880 0 
 704 -881 0 
 830 -881 0 
 880 -881 0 
 747  873 -882 0 
 747 -883 0 
 873 -883 0 
 882 -883 0 
 882  881 -884 0 
 882 -885 0 
 881 -885 0 
 884 -885 0 
 743  869 -886 0 
 743 -887 0 
 869 -887 0 
 886 -887 0 
 751  877 -888 0 
 751 -889 0 
 877 -889 0 
 888 -889 0 
 888  887 -890 0 
 888 -891 0 
 887 -891 0 
 890 -891 0 
 886  884 -892 0 
 886 -893 0 
 884 -893 0 
 892 -893 0 
 890  885 -894 0 
 890 -895 0 
 885 -895 0 
 894 -895 0 
 891  883 -896 0 
 891 -897 0 
 883 -897 0 
 896 -897 0 
 741  867 -898 0 
 741 -899 0 
 867 -899 0 
 898 -899 0 
 749  875 -900 0 
 749 -901 0 
 875 -901 0 
 900 -901 0 
 900  899 -902 0 
 900 -903 0 
 899 -903 0 
 902 -903 0 
 745  871 -904 0 
 745 -905 0 
 871 -905 0 
 904 -905 0 
 753  879 -906 0 
 906  905 -907 0 
 906 -908 0 
 905 -908 0 
 907 -908 0 
 904  902 -909 0 
 904 -910 0 
 902 -910 0 
 909 -910 0 
 907  903 -911 0 
 907 -912 0 
 903 -912 0 
 911 -912 0 
 908  901 -913 0 
 908 -914 0 
 901 -914 0 
 913 -914 0 
 898  892 -915 0 
 898 -916 0 
 892 -916 0 
 915 -916 0 
 909  893 -917 0 
 909 -918 0 
 893 -918 0 
 917 -918 0 
 910  894 -919 0 
 910 -920 0 
 894 -920 0 
 919 -920 0 
 911  895 -921 0 
 911 -922 0 
 895 -922 0 
 921 -922 0 
 912  896 -923 0 
 912 -924 0 
 896 -924 0 
 923 -924 0 
 913  897 -925 0 
 913 -926 0 
 897 -926 0 
 925 -926 0 
 914  889 -927 0 
 914 -928 0 
 889 -928 0 
 927 -928 0 
 740  866 -929 0 
 740 -930 0 
 866 -930 0 
 929 -930 0 
 748  874 -931 0 
 748 -932 0 
 874 -932 0 
 931 -932 0 
 931  930 -933 0 
 931 -934 0 
 930 -934 0 
 933 -934 0 
 744  870 -935 0 
 744 -936 0 
 870 -936 0 
 935 -936 0 
 752  878 -937 0 
 752 -938 0 
 878 -938 0 
 937 -938 0 
 937  936 -939 0 
 937 -940 0 
 936 -940 0 
 939 -940 0 
 935  933 -941 0 
 935 -942 0 
 933 -942 0 
 941 -942 0 
 939  934 -943 0 
 939 -944 0 
 934 -944 0 
 943 -944 0 
 940  932 -945 0 
 940 -946 0 
 932 -946 0 
 945 -946 0 
 742  868 -947 0 
 742 -948 0 
 868 -948 0 
 947 -948 0 
 750  876 -949 0 
 750 -950 0 
 876 -950 0 
 949 -950 0 
 949  948 -951 0 
 949 -952 0 
 948 -952 0 
 951 -952 0 
 746  872 -953 0 
 746 -954 0 
 872 -954 0 
 953 -954 0 
 731  857 -955 0 
 955  954 -956 0 
 955 -957 0 
 954 -957 0 
 956 -957 0 
 953  951 -958 0 
 953 -959 0 
 951 -959 0 
 958 -959 0 
 956  952 -960 0 
 956 -961 0 
 952 -961 0 
 960 -961 0 
 957  950 -962 0 
 957 -963 0 
 950 -963 0 
 962 -963 0 
 947  941 -964 0 
 947 -965 0 
 941 -965 0 
 964 -965 0 
 958  942 -966 0 
 958 -967 0 
 942 -967 0 
 966 -967 0 
 959  943 -968 0 
 959 -969 0 
 943 -969 0 
 968 -969 0 
 960  944 -970 0 
 960 -971 0 
 944 -971 0 
 970 -971 0 
 961  945 -972 0 
 961 -973 0 
 945 -973 0 
 972 -973 0 
 962  946 -974 0 
 962 -975 0 
 946 -975 0 
 974 -975 0 
 963  938 -976 0 
 929  915 -977 0 
 929 -978 0 
 915 -978 0 
 977 -978 0 
 964  916 -979 0 
 964 -980 0 
 916 -980 0 
 979 -980 0 
 965  917 -981 0 
 965 -982 0 
 917 -982 0 
 981 -982 0 
 966  918 -983 0 
 966 -984 0 
 918 -984 0 
 983 -984 0 
 967  919 -985 0 
 967 -986 0 
 919 -986 0 
 985 -986 0 
 968  920 -987 0 
 968 -988 0 
 920 -988 0 
 987 -988 0 
 969  921 -989 0 
 969 -990 0 
 921 -990 0 
 989 -990 0 
 970  922 -991 0 
 970 -992 0 
 922 -992 0 
 991 -992 0 
 971  923 -993 0 
 971 -994 0 
 923 -994 0 
 993 -994 0 
 972  924 -995 0 
 972 -996 0 
 924 -996 0 
 995 -996 0 
 973  925 -997 0 
 973 -998 0 
 925 -998 0 
 997 -998 0 
 974  926 -999 0 
 974 -1000 0 
 926 -1000 0 
 999 -1000 0 
 975  927 -1001 0 
 975 -1002 0 
 927 -1002 0 
 1001 -1002 0 
 976  928 -1003 0 
 409  411 -1004 0 
 409 -1005 0 
 411 -1005 0 
 1004 -1005 0 
 413  415 -1006 0 
 413 -1007 0 
 415 -1007 0 
 1006 -1007 0 
 1004  1006 -1008 0 
 1004 -1009 0 
 1006 -1009 0 
 1008 -1009 0 
 1005  1007 -1010 0 
 1005 -1011 0 
 1007 -1011 0 
 1010 -1011 0 
 1010  1009 -1012 0 
 1010 -1013 0 
 1009 -1013 0 
 1012 -1013 0 
 423  425 -1014 0 
 423 -1015 0 
 425 -1015 0 
 1014 -1015 0 
 427  429 -1016 0 
 427 -1017 0 
 429 -1017 0 
 1016 -1017 0 
 1014  1016 -1018 0 
 1014 -1019 0 
 1016 -1019 0 
 1018 -1019 0 
 1015  1017 -1020 0 
 1015 -1021 0 
 1017 -1021 0 
 1020 -1021 0 
 1020  1019 -1022 0 
 1020 -1023 0 
 1019 -1023 0 
 1022 -1023 0 
 1008  1018 -1024 0 
 1008 -1025 0 
 1018 -1025 0 
 1024 -1025 0 
 1013  1023 -1026 0 
 1013 -1027 0 
 1023 -1027 0 
 1026 -1027 0 
 1026  1025 -1028 0 
 1026 -1029 0 
 1025 -1029 0 
 1028 -1029 0 
 1012  1022 -1030 0 
 1012 -1031 0 
 1022 -1031 0 
 1030 -1031 0 
 1011  1021 -1032 0 
 1011 -1033 0 
 1021 -1033 0 
 1032 -1033 0 
 1032  1031 -1034 0 
 1032 -1035 0 
 1031 -1035 0 
 1034 -1035 0 
 1030  1028 -1036 0 
 1030 -1037 0 
 1028 -1037 0 
 1036 -1037 0 
 1034  1029 -1038 0 
 1034 -1039 0 
 1029 -1039 0 
 1038 -1039 0 
 1035  1027 -1040 0 
 1035 -1041 0 
 1027 -1041 0 
 1040 -1041 0 
 455  457 -1042 0 
 455 -1043 0 
 457 -1043 0 
 1042 -1043 0 
 459  461 -1044 0 
 459 -1045 0 
 461 -1045 0 
 1044 -1045 0 
 1042  1044 -1046 0 
 1042 -1047 0 
 1044 -1047 0 
 1046 -1047 0 
 1043  1045 -1048 0 
 1043 -1049 0 
 1045 -1049 0 
 1048 -1049 0 
 1048  1047 -1050 0 
 1048 -1051 0 
 1047 -1051 0 
 1050 -1051 0 
 469  471 -1052 0 
 469 -1053 0 
 471 -1053 0 
 1052 -1053 0 
 473  475 -1054 0 
 473 -1055 0 
 475 -1055 0 
 1054 -1055 0 
 1052  1054 -1056 0 
 1052 -1057 0 
 1054 -1057 0 
 1056 -1057 0 
 1053  1055 -1058 0 
 1053 -1059 0 
 1055 -1059 0 
 1058 -1059 0 
 1058  1057 -1060 0 
 1058 -1061 0 
 1057 -1061 0 
 1060 -1061 0 
 1046  1056 -1062 0 
 1046 -1063 0 
 1056 -1063 0 
 1062 -1063 0 
 1051  1061 -1064 0 
 1051 -1065 0 
 1061 -1065 0 
 1064 -1065 0 
 1064  1063 -1066 0 
 1064 -1067 0 
 1063 -1067 0 
 1066 -1067 0 
 1050  1060 -1068 0 
 1050 -1069 0 
 1060 -1069 0 
 1068 -1069 0 
 1049  1059 -1070 0 
 1049 -1071 0 
 1059 -1071 0 
 1070 -1071 0 
 1070  1069 -1072 0 
 1070 -1073 0 
 1069 -1073 0 
 1072 -1073 0 
 1068  1066 -1074 0 
 1068 -1075 0 
 1066 -1075 0 
 1074 -1075 0 
 1072  1067 -1076 0 
 1072 -1077 0 
 1067 -1077 0 
 1076 -1077 0 
 1073  1065 -1078 0 
 1073 -1079 0 
 1065 -1079 0 
 1078 -1079 0 
 1024  1062 -1080 0 
 1024 -1081 0 
 1062 -1081 0 
 1080 -1081 0 
 1039  1077 -1082 0 
 1039 -1083 0 
 1077 -1083 0 
 1082 -1083 0 
 1082  1081 -1084 0 
 1082 -1085 0 
 1081 -1085 0 
 1084 -1085 0 
 1037  1075 -1086 0 
 1037 -1087 0 
 1075 -1087 0 
 1086 -1087 0 
 1041  1079 -1088 0 
 1041 -1089 0 
 1079 -1089 0 
 1088 -1089 0 
 1088  1087 -1090 0 
 1088 -1091 0 
 1087 -1091 0 
 1090 -1091 0 
 1086  1084 -1092 0 
 1086 -1093 0 
 1084 -1093 0 
 1092 -1093 0 
 1090  1085 -1094 0 
 1090 -1095 0 
 1085 -1095 0 
 1094 -1095 0 
 1091  1083 -1096 0 
 1091 -1097 0 
 1083 -1097 0 
 1096 -1097 0 
 1036  1074 -1098 0 
 1036 -1099 0 
 1074 -1099 0 
 1098 -1099 0 
 1040  1078 -1100 0 
 1040 -1101 0 
 1078 -1101 0 
 1100 -1101 0 
 1100  1099 -1102 0 
 1100 -1103 0 
 1099 -1103 0 
 1102 -1103 0 
 1038  1076 -1104 0 
 1038 -1105 0 
 1076 -1105 0 
 1104 -1105 0 
 1033  1071 -1106 0 
 1033 -1107 0 
 1071 -1107 0 
 1106 -1107 0 
 1106  1105 -1108 0 
 1106 -1109 0 
 1105 -1109 0 
 1108 -1109 0 
 1104  1102 -1110 0 
 1104 -1111 0 
 1102 -1111 0 
 1110 -1111 0 
 1108  1103 -1112 0 
 1108 -1113 0 
 1103 -1113 0 
 1112 -1113 0 
 1109  1101 -1114 0 
 1109 -1115 0 
 1101 -1115 0 
 1114 -1115 0 
 1098  1092 -1116 0 
 1098 -1117 0 
 1092 -1117 0 
 1116 -1117 0 
 1110  1093 -1118 0 
 1110 -1119 0 
 1093 -1119 0 
 1118 -1119 0 
 1111  1094 -1120 0 
 1111 -1121 0 
 1094 -1121 0 
 1120 -1121 0 
 1112  1095 -1122 0 
 1112 -1123 0 
 1095 -1123 0 
 1122 -1123 0 
 1113  1096 -1124 0 
 1113 -1125 0 
 1096 -1125 0 
 1124 -1125 0 
 1114  1097 -1126 0 
 1114 -1127 0 
 1097 -1127 0 
 1126 -1127 0 
 1115  1089 -1128 0 
 1115 -1129 0 
 1089 -1129 0 
 1128 -1129 0 
 1119  1123 -1130 0 
 1119 -1131 0 
 1123 -1131 0 
 1130 -1131 0 
 1121  1125 -1132 0 
 1121 -1133 0 
 1125 -1133 0 
 1132 -1133 0 
 1117  1130 -1134 0 
 1117 -1135 0 
 1130 -1135 0 
 1134 -1135 0 
 1132  1131 -1136 0 
 1132 -1137 0 
 1131 -1137 0 
 1136 -1137 0 
 1133  1127 -1138 0 
 1133 -1139 0 
 1127 -1139 0 
 1138 -1139 0 
 1120  1124 -1140 0 
 1120 -1141 0 
 1124 -1141 0 
 1140 -1141 0 
 1122  1126 -1142 0 
 1122 -1143 0 
 1126 -1143 0 
 1142 -1143 0 
 1118  1140 -1144 0 
 1118 -1145 0 
 1140 -1145 0 
 1144 -1145 0 
 1142  1141 -1146 0 
 1142 -1147 0 
 1141 -1147 0 
 1146 -1147 0 
 1143  1128 -1148 0 
 1143 -1149 0 
 1128 -1149 0 
 1148 -1149 0 
 1116  1134 -1150 0 
 1116 -1151 0 
 1134 -1151 0 
 1150 -1151 0 
 1144  1135 -1152 0 
 1144 -1153 0 
 1135 -1153 0 
 1152 -1153 0 
 1145  1136 -1154 0 
 1145 -1155 0 
 1136 -1155 0 
 1154 -1155 0 
 1146  1137 -1156 0 
 1146 -1157 0 
 1137 -1157 0 
 1156 -1157 0 
 1147  1138 -1158 0 
 1147 -1159 0 
 1138 -1159 0 
 1158 -1159 0 
 1148  1139 -1160 0 
 1148 -1161 0 
 1139 -1161 0 
 1160 -1161 0 
 1149  1129 -1162 0 
 1149 -1163 0 
 1129 -1163 0 
 1162 -1163 0 
 880  1080 0 
 880 -1164 0 
 1080 -1164 0 
 1165 -1164 0 
 992  1164 0 
 992 -1166 0 
 1164 -1166 0 
 1165 -1166 0 
 984  1157 0 
 984 -1167 0 
 1157 -1167 0 
 1165 -1167 0 
 1000  1167 -1168 0 
 1168  1166 0 
 980  1153 0 
 980 -1169 0 
 1153 -1169 0 
 1165 -1169 0 
 996  1169 0 
 988  1161 0 
 978  1151 0 
 978 -1170 0 
 1151 -1170 0 
 1165 -1170 0 
 994  1170 0 
 994 -1171 0 
 1170 -1171 0 
 1165 -1171 0 
 986  1159 0 
 986 -1172 0 
 1159 -1172 0 
 1165 -1172 0 
 1002  1172 -1173 0 
 1173  1171 -1174 0 
 982  1155 0 
 982 -1175 0 
 1155 -1175 0 
 1165 -1175 0 
 998  1175 -1176 0 
 990  1163 -1177 0 
 1177  1176 0 
 1177 -1178 0 
 1176 -1178 0 
 1165 -1178 0 
 1178  1174 0 
 977  1150 0 
 977 -1179 0 
 1150 -1179 0 
 1165 -1179 0 
 993  1179 0 
 993 -1180 0 
 1179 -1180 0 
 1165 -1180 0 
 985  1158 0 
 985 -1181 0 
 1158 -1181 0 
 1165 -1181 0 
 1001  1181 -1182 0 
 1182  1180 -1183 0 
 981  1154 0 
 981 -1184 0 
 1154 -1184 0 
 1165 -1184 0 
 997  1184 -1185 0 
 989  1162 -1186 0 
 1186  1185 0 
 1186 -1187 0 
 1185 -1187 0 
 1165 -1187 0 
 1187  1183 0 
 1187 -1188 0 
 1183 -1188 0 
 1165 -1188 0 
 979  1152 0 
 979 -1189 0 
 1152 -1189 0 
 1165 -1189 0 
 995  1189 0 
 995 -1190 0 
 1189 -1190 0 
 1165 -1190 0 
 987  1160 0 
 987 -1191 0 
 1160 -1191 0 
 1165 -1191 0 
 1003  1191 -1192 0 
 1192  1190 -1193 0 
 983  1156 0 
 983 -1194 0 
 1156 -1194 0 
 1165 -1194 0 
 999  1194 -1195 0 
 991  1107 -1196 0 
 1196  1195 0 
 1196 -1197 0 
 1195 -1197 0 
 1165 -1197 0 
 1197  1193 -1198 0 
 1198  1188 0 
